40
2 1 40
4 1 3
4 2 38
5 0 32
10 5 10
13 7 38
14 1 16
15 1 36
15 4 1
15 13 8
16 12 39
17 1 25
17 16 13
18 8 28
18 11 19
18 16 10
19 4 11
20 6 29
20 12 2
21 0 18
21 9 4
21 12 32
22 1 17
22 3 13
22 6 3
23 3 15
24 7 20
24 21 36
26 0 16
26 15 26
26 18 5
27 2 27
27 4 8
27 8 6
27 14 25
27 16 39
28 8 26
28 9 14
28 12 9
28 17 36
28 26 30
29 4 31
29 6 21
29 12 7
30 0 21
30 5 19
30 6 27
30 13 5
30 26 11
31 0 9
31 2 14
33 0 5
33 4 6
33 12 10
33 24 16
33 28 11
34 1 18
34 5 15
34 15 3
34 26 35
35 1 40
35 7 30
35 19 23
36 21 24
36 26 24
37 8 23
37 9 16
37 15 14
37 19 15
38 15 9
38 26 34
39 12 1
39 13 32
39 15 29
39 29 7
39 32 33
